p cnf 54 1244
-1 -2 0
-3 -4 0
-5 -6 0
-7 -8 0
-9 -10 0
-11 -12 0
-13 -14 0
-15 -16 0
-17 -18 0
-19 -20 0
-21 -22 0
-23 -24 0
-25 -26 0
-27 -28 0
-29 -30 0
-31 -32 0
-33 -34 0
-35 -36 0
-37 -38 0
-39 -40 0
-41 -42 0
-43 -44 0
-45 -46 0
-47 -48 0
-49 -50 0
-51 -52 0
-53 -54 0
1 3 5 7 9 11 13 15 17 19 21 23 25 27 29 31 33 35 37 39 41 43 45 47 49 51 53 0
-1 -3 0
-1 -5 0
-1 -7 0
-1 -9 0
-1 -11 0
-1 -13 0
-1 -15 0
-1 -17 0
-1 -19 0
-1 -21 0
-1 -23 0
-1 -25 0
-1 -27 0
-1 -29 0
-1 -31 0
-1 -33 0
-1 -35 0
-1 -37 0
-1 -39 0
-1 -41 0
-1 -43 0
-1 -45 0
-1 -47 0
-1 -49 0
-1 -51 0
-1 -53 0
-3 -5 0
-3 -7 0
-3 -9 0
-3 -11 0
-3 -13 0
-3 -15 0
-3 -17 0
-3 -19 0
-3 -21 0
-3 -23 0
-3 -25 0
-3 -27 0
-3 -29 0
-3 -31 0
-3 -33 0
-3 -35 0
-3 -37 0
-3 -39 0
-3 -41 0
-3 -43 0
-3 -45 0
-3 -47 0
-3 -49 0
-3 -51 0
-3 -53 0
-5 -7 0
-5 -9 0
-5 -11 0
-5 -13 0
-5 -15 0
-5 -17 0
-5 -19 0
-5 -21 0
-5 -23 0
-5 -25 0
-5 -27 0
-5 -29 0
-5 -31 0
-5 -33 0
-5 -35 0
-5 -37 0
-5 -39 0
-5 -41 0
-5 -43 0
-5 -45 0
-5 -47 0
-5 -49 0
-5 -51 0
-5 -53 0
-7 -9 0
-7 -11 0
-7 -13 0
-7 -15 0
-7 -17 0
-7 -19 0
-7 -21 0
-7 -23 0
-7 -25 0
-7 -27 0
-7 -29 0
-7 -31 0
-7 -33 0
-7 -35 0
-7 -37 0
-7 -39 0
-7 -41 0
-7 -43 0
-7 -45 0
-7 -47 0
-7 -49 0
-7 -51 0
-7 -53 0
-9 -11 0
-9 -13 0
-9 -15 0
-9 -17 0
-9 -19 0
-9 -21 0
-9 -23 0
-9 -25 0
-9 -27 0
-9 -29 0
-9 -31 0
-9 -33 0
-9 -35 0
-9 -37 0
-9 -39 0
-9 -41 0
-9 -43 0
-9 -45 0
-9 -47 0
-9 -49 0
-9 -51 0
-9 -53 0
-11 -13 0
-11 -15 0
-11 -17 0
-11 -19 0
-11 -21 0
-11 -23 0
-11 -25 0
-11 -27 0
-11 -29 0
-11 -31 0
-11 -33 0
-11 -35 0
-11 -37 0
-11 -39 0
-11 -41 0
-11 -43 0
-11 -45 0
-11 -47 0
-11 -49 0
-11 -51 0
-11 -53 0
-13 -15 0
-13 -17 0
-13 -19 0
-13 -21 0
-13 -23 0
-13 -25 0
-13 -27 0
-13 -29 0
-13 -31 0
-13 -33 0
-13 -35 0
-13 -37 0
-13 -39 0
-13 -41 0
-13 -43 0
-13 -45 0
-13 -47 0
-13 -49 0
-13 -51 0
-13 -53 0
-15 -17 0
-15 -19 0
-15 -21 0
-15 -23 0
-15 -25 0
-15 -27 0
-15 -29 0
-15 -31 0
-15 -33 0
-15 -35 0
-15 -37 0
-15 -39 0
-15 -41 0
-15 -43 0
-15 -45 0
-15 -47 0
-15 -49 0
-15 -51 0
-15 -53 0
-17 -19 0
-17 -21 0
-17 -23 0
-17 -25 0
-17 -27 0
-17 -29 0
-17 -31 0
-17 -33 0
-17 -35 0
-17 -37 0
-17 -39 0
-17 -41 0
-17 -43 0
-17 -45 0
-17 -47 0
-17 -49 0
-17 -51 0
-17 -53 0
-19 -21 0
-19 -23 0
-19 -25 0
-19 -27 0
-19 -29 0
-19 -31 0
-19 -33 0
-19 -35 0
-19 -37 0
-19 -39 0
-19 -41 0
-19 -43 0
-19 -45 0
-19 -47 0
-19 -49 0
-19 -51 0
-19 -53 0
-21 -23 0
-21 -25 0
-21 -27 0
-21 -29 0
-21 -31 0
-21 -33 0
-21 -35 0
-21 -37 0
-21 -39 0
-21 -41 0
-21 -43 0
-21 -45 0
-21 -47 0
-21 -49 0
-21 -51 0
-21 -53 0
-23 -25 0
-23 -27 0
-23 -29 0
-23 -31 0
-23 -33 0
-23 -35 0
-23 -37 0
-23 -39 0
-23 -41 0
-23 -43 0
-23 -45 0
-23 -47 0
-23 -49 0
-23 -51 0
-23 -53 0
-25 -27 0
-25 -29 0
-25 -31 0
-25 -33 0
-25 -35 0
-25 -37 0
-25 -39 0
-25 -41 0
-25 -43 0
-25 -45 0
-25 -47 0
-25 -49 0
-25 -51 0
-25 -53 0
-27 -29 0
-27 -31 0
-27 -33 0
-27 -35 0
-27 -37 0
-27 -39 0
-27 -41 0
-27 -43 0
-27 -45 0
-27 -47 0
-27 -49 0
-27 -51 0
-27 -53 0
-29 -31 0
-29 -33 0
-29 -35 0
-29 -37 0
-29 -39 0
-29 -41 0
-29 -43 0
-29 -45 0
-29 -47 0
-29 -49 0
-29 -51 0
-29 -53 0
-31 -33 0
-31 -35 0
-31 -37 0
-31 -39 0
-31 -41 0
-31 -43 0
-31 -45 0
-31 -47 0
-31 -49 0
-31 -51 0
-31 -53 0
-33 -35 0
-33 -37 0
-33 -39 0
-33 -41 0
-33 -43 0
-33 -45 0
-33 -47 0
-33 -49 0
-33 -51 0
-33 -53 0
-35 -37 0
-35 -39 0
-35 -41 0
-35 -43 0
-35 -45 0
-35 -47 0
-35 -49 0
-35 -51 0
-35 -53 0
-37 -39 0
-37 -41 0
-37 -43 0
-37 -45 0
-37 -47 0
-37 -49 0
-37 -51 0
-37 -53 0
-39 -41 0
-39 -43 0
-39 -45 0
-39 -47 0
-39 -49 0
-39 -51 0
-39 -53 0
-41 -43 0
-41 -45 0
-41 -47 0
-41 -49 0
-41 -51 0
-41 -53 0
-43 -45 0
-43 -47 0
-43 -49 0
-43 -51 0
-43 -53 0
-45 -47 0
-45 -49 0
-45 -51 0
-45 -53 0
-47 -49 0
-47 -51 0
-47 -53 0
-49 -51 0
-49 -53 0
-51 -53 0
2 4 6 8 10 12 14 16 18 20 22 24 26 28 30 32 34 36 38 40 42 44 46 48 50 52 54 0
-2 -4 0
-2 -6 0
-2 -8 0
-2 -10 0
-2 -12 0
-2 -14 0
-2 -16 0
-2 -18 0
-2 -20 0
-2 -22 0
-2 -24 0
-2 -26 0
-2 -28 0
-2 -30 0
-2 -32 0
-2 -34 0
-2 -36 0
-2 -38 0
-2 -40 0
-2 -42 0
-2 -44 0
-2 -46 0
-2 -48 0
-2 -50 0
-2 -52 0
-2 -54 0
-4 -6 0
-4 -8 0
-4 -10 0
-4 -12 0
-4 -14 0
-4 -16 0
-4 -18 0
-4 -20 0
-4 -22 0
-4 -24 0
-4 -26 0
-4 -28 0
-4 -30 0
-4 -32 0
-4 -34 0
-4 -36 0
-4 -38 0
-4 -40 0
-4 -42 0
-4 -44 0
-4 -46 0
-4 -48 0
-4 -50 0
-4 -52 0
-4 -54 0
-6 -8 0
-6 -10 0
-6 -12 0
-6 -14 0
-6 -16 0
-6 -18 0
-6 -20 0
-6 -22 0
-6 -24 0
-6 -26 0
-6 -28 0
-6 -30 0
-6 -32 0
-6 -34 0
-6 -36 0
-6 -38 0
-6 -40 0
-6 -42 0
-6 -44 0
-6 -46 0
-6 -48 0
-6 -50 0
-6 -52 0
-6 -54 0
-8 -10 0
-8 -12 0
-8 -14 0
-8 -16 0
-8 -18 0
-8 -20 0
-8 -22 0
-8 -24 0
-8 -26 0
-8 -28 0
-8 -30 0
-8 -32 0
-8 -34 0
-8 -36 0
-8 -38 0
-8 -40 0
-8 -42 0
-8 -44 0
-8 -46 0
-8 -48 0
-8 -50 0
-8 -52 0
-8 -54 0
-10 -12 0
-10 -14 0
-10 -16 0
-10 -18 0
-10 -20 0
-10 -22 0
-10 -24 0
-10 -26 0
-10 -28 0
-10 -30 0
-10 -32 0
-10 -34 0
-10 -36 0
-10 -38 0
-10 -40 0
-10 -42 0
-10 -44 0
-10 -46 0
-10 -48 0
-10 -50 0
-10 -52 0
-10 -54 0
-12 -14 0
-12 -16 0
-12 -18 0
-12 -20 0
-12 -22 0
-12 -24 0
-12 -26 0
-12 -28 0
-12 -30 0
-12 -32 0
-12 -34 0
-12 -36 0
-12 -38 0
-12 -40 0
-12 -42 0
-12 -44 0
-12 -46 0
-12 -48 0
-12 -50 0
-12 -52 0
-12 -54 0
-14 -16 0
-14 -18 0
-14 -20 0
-14 -22 0
-14 -24 0
-14 -26 0
-14 -28 0
-14 -30 0
-14 -32 0
-14 -34 0
-14 -36 0
-14 -38 0
-14 -40 0
-14 -42 0
-14 -44 0
-14 -46 0
-14 -48 0
-14 -50 0
-14 -52 0
-14 -54 0
-16 -18 0
-16 -20 0
-16 -22 0
-16 -24 0
-16 -26 0
-16 -28 0
-16 -30 0
-16 -32 0
-16 -34 0
-16 -36 0
-16 -38 0
-16 -40 0
-16 -42 0
-16 -44 0
-16 -46 0
-16 -48 0
-16 -50 0
-16 -52 0
-16 -54 0
-18 -20 0
-18 -22 0
-18 -24 0
-18 -26 0
-18 -28 0
-18 -30 0
-18 -32 0
-18 -34 0
-18 -36 0
-18 -38 0
-18 -40 0
-18 -42 0
-18 -44 0
-18 -46 0
-18 -48 0
-18 -50 0
-18 -52 0
-18 -54 0
-20 -22 0
-20 -24 0
-20 -26 0
-20 -28 0
-20 -30 0
-20 -32 0
-20 -34 0
-20 -36 0
-20 -38 0
-20 -40 0
-20 -42 0
-20 -44 0
-20 -46 0
-20 -48 0
-20 -50 0
-20 -52 0
-20 -54 0
-22 -24 0
-22 -26 0
-22 -28 0
-22 -30 0
-22 -32 0
-22 -34 0
-22 -36 0
-22 -38 0
-22 -40 0
-22 -42 0
-22 -44 0
-22 -46 0
-22 -48 0
-22 -50 0
-22 -52 0
-22 -54 0
-24 -26 0
-24 -28 0
-24 -30 0
-24 -32 0
-24 -34 0
-24 -36 0
-24 -38 0
-24 -40 0
-24 -42 0
-24 -44 0
-24 -46 0
-24 -48 0
-24 -50 0
-24 -52 0
-24 -54 0
-26 -28 0
-26 -30 0
-26 -32 0
-26 -34 0
-26 -36 0
-26 -38 0
-26 -40 0
-26 -42 0
-26 -44 0
-26 -46 0
-26 -48 0
-26 -50 0
-26 -52 0
-26 -54 0
-28 -30 0
-28 -32 0
-28 -34 0
-28 -36 0
-28 -38 0
-28 -40 0
-28 -42 0
-28 -44 0
-28 -46 0
-28 -48 0
-28 -50 0
-28 -52 0
-28 -54 0
-30 -32 0
-30 -34 0
-30 -36 0
-30 -38 0
-30 -40 0
-30 -42 0
-30 -44 0
-30 -46 0
-30 -48 0
-30 -50 0
-30 -52 0
-30 -54 0
-32 -34 0
-32 -36 0
-32 -38 0
-32 -40 0
-32 -42 0
-32 -44 0
-32 -46 0
-32 -48 0
-32 -50 0
-32 -52 0
-32 -54 0
-34 -36 0
-34 -38 0
-34 -40 0
-34 -42 0
-34 -44 0
-34 -46 0
-34 -48 0
-34 -50 0
-34 -52 0
-34 -54 0
-36 -38 0
-36 -40 0
-36 -42 0
-36 -44 0
-36 -46 0
-36 -48 0
-36 -50 0
-36 -52 0
-36 -54 0
-38 -40 0
-38 -42 0
-38 -44 0
-38 -46 0
-38 -48 0
-38 -50 0
-38 -52 0
-38 -54 0
-40 -42 0
-40 -44 0
-40 -46 0
-40 -48 0
-40 -50 0
-40 -52 0
-40 -54 0
-42 -44 0
-42 -46 0
-42 -48 0
-42 -50 0
-42 -52 0
-42 -54 0
-44 -46 0
-44 -48 0
-44 -50 0
-44 -52 0
-44 -54 0
-46 -48 0
-46 -50 0
-46 -52 0
-46 -54 0
-48 -50 0
-48 -52 0
-48 -54 0
-50 -52 0
-50 -54 0
-52 -54 0
-1 -4 0
-1 -6 0
-1 -8 0
-1 -14 0
-1 -20 0
-1 -38 0
-3 -2 0
-3 -6 0
-3 -8 0
-3 -10 0
-3 -14 0
-3 -16 0
-3 -20 0
-3 -22 0
-3 -38 0
-3 -40 0
-5 -2 0
-5 -4 0
-5 -8 0
-5 -10 0
-5 -12 0
-5 -14 0
-5 -16 0
-5 -18 0
-5 -20 0
-5 -22 0
-5 -24 0
-5 -38 0
-5 -40 0
-5 -42 0
-7 -2 0
-7 -4 0
-7 -6 0
-7 -10 0
-7 -12 0
-7 -14 0
-7 -20 0
-7 -26 0
-7 -38 0
-7 -44 0
-9 -2 0
-9 -4 0
-9 -6 0
-9 -8 0
-9 -12 0
-9 -14 0
-9 -16 0
-9 -20 0
-9 -22 0
-9 -26 0
-9 -28 0
-9 -38 0
-9 -40 0
-9 -44 0
-9 -46 0
-11 -2 0
-11 -4 0
-11 -6 0
-11 -8 0
-11 -10 0
-11 -14 0
-11 -16 0
-11 -18 0
-11 -20 0
-11 -22 0
-11 -24 0
-11 -26 0
-11 -28 0
-11 -30 0
-11 -38 0
-11 -40 0
-11 -42 0
-11 -44 0
-11 -46 0
-11 -48 0
-13 -2 0
-13 -4 0
-13 -6 0
-13 -8 0
-13 -10 0
-13 -12 0
-13 -16 0
-13 -18 0
-13 -20 0
-13 -26 0
-13 -32 0
-13 -38 0
-13 -44 0
-13 -50 0
-15 -2 0
-15 -4 0
-15 -6 0
-15 -8 0
-15 -10 0
-15 -12 0
-15 -14 0
-15 -18 0
-15 -20 0
-15 -22 0
-15 -26 0
-15 -28 0
-15 -32 0
-15 -34 0
-15 -38 0
-15 -40 0
-15 -44 0
-15 -46 0
-15 -50 0
-15 -52 0
-17 -2 0
-17 -4 0
-17 -6 0
-17 -8 0
-17 -10 0
-17 -12 0
-17 -14 0
-17 -16 0
-17 -20 0
-17 -22 0
-17 -24 0
-17 -26 0
-17 -28 0
-17 -30 0
-17 -32 0
-17 -34 0
-17 -36 0
-17 -38 0
-17 -40 0
-17 -42 0
-17 -44 0
-17 -46 0
-17 -48 0
-17 -50 0
-17 -52 0
-17 -54 0
-19 -2 0
-19 -4 0
-19 -6 0
-19 -8 0
-19 -14 0
-19 -22 0
-19 -24 0
-19 -26 0
-19 -32 0
-19 -38 0
-21 -2 0
-21 -4 0
-21 -6 0
-21 -8 0
-21 -10 0
-21 -14 0
-21 -16 0
-21 -20 0
-21 -24 0
-21 -26 0
-21 -28 0
-21 -32 0
-21 -34 0
-21 -38 0
-21 -40 0
-23 -2 0
-23 -4 0
-23 -6 0
-23 -8 0
-23 -10 0
-23 -12 0
-23 -14 0
-23 -16 0
-23 -18 0
-23 -20 0
-23 -22 0
-23 -26 0
-23 -28 0
-23 -30 0
-23 -32 0
-23 -34 0
-23 -36 0
-23 -38 0
-23 -40 0
-23 -42 0
-25 -2 0
-25 -4 0
-25 -6 0
-25 -8 0
-25 -10 0
-25 -12 0
-25 -14 0
-25 -20 0
-25 -22 0
-25 -24 0
-25 -28 0
-25 -30 0
-25 -32 0
-25 -38 0
-25 -44 0
-27 -2 0
-27 -4 0
-27 -6 0
-27 -8 0
-27 -10 0
-27 -12 0
-27 -14 0
-27 -16 0
-27 -20 0
-27 -22 0
-27 -24 0
-27 -26 0
-27 -30 0
-27 -32 0
-27 -34 0
-27 -38 0
-27 -40 0
-27 -44 0
-27 -46 0
-29 -2 0
-29 -4 0
-29 -6 0
-29 -8 0
-29 -10 0
-29 -12 0
-29 -14 0
-29 -16 0
-29 -18 0
-29 -20 0
-29 -22 0
-29 -24 0
-29 -26 0
-29 -28 0
-29 -32 0
-29 -34 0
-29 -36 0
-29 -38 0
-29 -40 0
-29 -42 0
-29 -44 0
-29 -46 0
-29 -48 0
-31 -2 0
-31 -4 0
-31 -6 0
-31 -8 0
-31 -10 0
-31 -12 0
-31 -14 0
-31 -16 0
-31 -18 0
-31 -20 0
-31 -22 0
-31 -24 0
-31 -26 0
-31 -28 0
-31 -30 0
-31 -34 0
-31 -36 0
-31 -38 0
-31 -44 0
-31 -50 0
-33 -2 0
-33 -4 0
-33 -6 0
-33 -8 0
-33 -10 0
-33 -12 0
-33 -14 0
-33 -16 0
-33 -18 0
-33 -20 0
-33 -22 0
-33 -24 0
-33 -26 0
-33 -28 0
-33 -30 0
-33 -32 0
-33 -36 0
-33 -38 0
-33 -40 0
-33 -44 0
-33 -46 0
-33 -50 0
-33 -52 0
-35 -2 0
-35 -4 0
-35 -6 0
-35 -8 0
-35 -10 0
-35 -12 0
-35 -14 0
-35 -16 0
-35 -18 0
-35 -20 0
-35 -22 0
-35 -24 0
-35 -26 0
-35 -28 0
-35 -30 0
-35 -32 0
-35 -34 0
-35 -38 0
-35 -40 0
-35 -42 0
-35 -44 0
-35 -46 0
-35 -48 0
-35 -50 0
-35 -52 0
-35 -54 0
-37 -2 0
-37 -4 0
-37 -6 0
-37 -8 0
-37 -14 0
-37 -20 0
-37 -22 0
-37 -24 0
-37 -26 0
-37 -32 0
-37 -40 0
-37 -42 0
-37 -44 0
-37 -50 0
-39 -2 0
-39 -4 0
-39 -6 0
-39 -8 0
-39 -10 0
-39 -14 0
-39 -16 0
-39 -20 0
-39 -22 0
-39 -24 0
-39 -26 0
-39 -28 0
-39 -32 0
-39 -34 0
-39 -38 0
-39 -42 0
-39 -44 0
-39 -46 0
-39 -50 0
-39 -52 0
-41 -2 0
-41 -4 0
-41 -6 0
-41 -8 0
-41 -10 0
-41 -12 0
-41 -14 0
-41 -16 0
-41 -18 0
-41 -20 0
-41 -22 0
-41 -24 0
-41 -26 0
-41 -28 0
-41 -30 0
-41 -32 0
-41 -34 0
-41 -36 0
-41 -38 0
-41 -40 0
-41 -44 0
-41 -46 0
-41 -48 0
-41 -50 0
-41 -52 0
-41 -54 0
-43 -2 0
-43 -4 0
-43 -6 0
-43 -8 0
-43 -10 0
-43 -12 0
-43 -14 0
-43 -20 0
-43 -22 0
-43 -24 0
-43 -26 0
-43 -28 0
-43 -30 0
-43 -32 0
-43 -38 0
-43 -40 0
-43 -42 0
-43 -46 0
-43 -48 0
-43 -50 0
-45 -2 0
-45 -4 0
-45 -6 0
-45 -8 0
-45 -10 0
-45 -12 0
-45 -14 0
-45 -16 0
-45 -20 0
-45 -22 0
-45 -24 0
-45 -26 0
-45 -28 0
-45 -30 0
-45 -32 0
-45 -34 0
-45 -38 0
-45 -40 0
-45 -42 0
-45 -44 0
-45 -48 0
-45 -50 0
-45 -52 0
-47 -2 0
-47 -4 0
-47 -6 0
-47 -8 0
-47 -10 0
-47 -12 0
-47 -14 0
-47 -16 0
-47 -18 0
-47 -20 0
-47 -22 0
-47 -24 0
-47 -26 0
-47 -28 0
-47 -30 0
-47 -32 0
-47 -34 0
-47 -36 0
-47 -38 0
-47 -40 0
-47 -42 0
-47 -44 0
-47 -46 0
-47 -50 0
-47 -52 0
-47 -54 0
-49 -2 0
-49 -4 0
-49 -6 0
-49 -8 0
-49 -10 0
-49 -12 0
-49 -14 0
-49 -16 0
-49 -18 0
-49 -20 0
-49 -22 0
-49 -24 0
-49 -26 0
-49 -28 0
-49 -30 0
-49 -32 0
-49 -34 0
-49 -36 0
-49 -38 0
-49 -40 0
-49 -42 0
-49 -44 0
-49 -46 0
-49 -48 0
-49 -52 0
-49 -54 0
-51 -2 0
-51 -4 0
-51 -6 0
-51 -8 0
-51 -10 0
-51 -12 0
-51 -14 0
-51 -16 0
-51 -18 0
-51 -20 0
-51 -22 0
-51 -24 0
-51 -26 0
-51 -28 0
-51 -30 0
-51 -32 0
-51 -34 0
-51 -36 0
-51 -38 0
-51 -40 0
-51 -42 0
-51 -44 0
-51 -46 0
-51 -48 0
-51 -50 0
-51 -54 0
-53 -2 0
-53 -4 0
-53 -6 0
-53 -8 0
-53 -10 0
-53 -12 0
-53 -14 0
-53 -16 0
-53 -18 0
-53 -20 0
-53 -22 0
-53 -24 0
-53 -26 0
-53 -28 0
-53 -30 0
-53 -32 0
-53 -34 0
-53 -36 0
-53 -38 0
-53 -40 0
-53 -42 0
-53 -44 0
-53 -46 0
-53 -48 0
-53 -50 0
-53 -52 0